p cnf 195 243
1 0
-39 -5 0
-39 6 0
-40 -4 0
-40 39 0
-41 2 0
-41 -38 0
-42 40 0
-42 41 0
-43 2 0
-43 5 0
-44 -6 0
-44 43 0
-45 2 0
-45 -36 0
-46 40 0
-46 45 0
47 44 46 0
48 42 -47 0
49 -1 -48 0
-50 2 1 0
-50 -2 -1 0
-51 1 0
-51 50 0
-52 3 1 0
-52 -3 -1 0
-53 51 0
-53 52 0
54 -4 4 0
55 -4 4 0
-56 -54 0
-56 -55 0
-57 53 0
-57 56 0
58 -5 5 0
59 -5 5 0
-60 -58 0
-60 -59 0
-61 57 0
-61 60 0
62 -6 6 0
63 -6 6 0
-64 -62 0
-64 -63 0
-65 61 0
-65 64 0
66 -7 7 0
67 -7 7 0
-68 -66 0
-68 -67 0
-69 65 0
-69 68 0
70 -8 8 0
71 -8 8 0
-72 -70 0
-72 -71 0
-73 69 0
-73 72 0
74 -9 9 0
75 -9 9 0
-76 -74 0
-76 -75 0
-77 73 0
-77 76 0
78 -10 10 0
79 -10 10 0
-80 -78 0
-80 -79 0
-81 77 0
-81 80 0
82 -11 11 0
83 -11 11 0
-84 -82 0
-84 -83 0
-85 81 0
-85 84 0
86 -12 12 0
87 -12 12 0
-88 -86 0
-88 -87 0
-89 85 0
-89 88 0
90 -13 13 0
91 -13 13 0
-92 -90 0
-92 -91 0
-93 89 0
-93 92 0
94 -14 14 0
95 -14 14 0
-96 -94 0
-96 -95 0
-97 93 0
-97 96 0
98 -15 15 0
99 -15 15 0
-100 -98 0
-100 -99 0
-101 97 0
-101 100 0
102 -16 16 0
103 -16 16 0
-104 -102 0
-104 -103 0
-105 101 0
-105 104 0
106 -17 17 0
107 -17 17 0
-108 -106 0
-108 -107 0
-109 105 0
-109 108 0
110 -18 18 0
111 -18 18 0
-112 -110 0
-112 -111 0
-113 109 0
-113 112 0
114 -19 19 0
115 -19 19 0
-116 -114 0
-116 -115 0
-117 113 0
-117 116 0
118 -20 20 0
119 -20 20 0
-120 -118 0
-120 -119 0
-121 117 0
-121 120 0
122 -21 21 0
123 -21 21 0
-124 -122 0
-124 -123 0
-125 121 0
-125 124 0
126 -22 22 0
127 -22 22 0
-128 -126 0
-128 -127 0
-129 125 0
-129 128 0
130 -23 23 0
131 -23 23 0
-132 -130 0
-132 -131 0
-133 129 0
-133 132 0
134 -24 24 0
135 -24 24 0
-136 -134 0
-136 -135 0
-137 133 0
-137 136 0
138 -25 25 0
139 -25 25 0
-140 -138 0
-140 -139 0
-141 137 0
-141 140 0
142 -26 26 0
143 -26 26 0
-144 -142 0
-144 -143 0
-145 141 0
-145 144 0
146 -27 27 0
147 -27 27 0
-148 -146 0
-148 -147 0
-149 145 0
-149 148 0
150 -28 28 0
151 -28 28 0
-152 -150 0
-152 -151 0
-153 149 0
-153 152 0
154 -29 29 0
155 -29 29 0
-156 -154 0
-156 -155 0
-157 153 0
-157 156 0
158 -30 30 0
159 -30 30 0
-160 -158 0
-160 -159 0
-161 157 0
-161 160 0
162 -31 31 0
163 -31 31 0
-164 -162 0
-164 -163 0
-165 161 0
-165 164 0
166 -32 32 0
167 -32 32 0
-168 -166 0
-168 -167 0
-169 165 0
-169 168 0
170 -33 33 0
171 -33 33 0
-172 -170 0
-172 -171 0
-173 169 0
-173 172 0
174 -34 34 0
175 -34 34 0
-176 -174 0
-176 -175 0
-177 173 0
-177 176 0
178 -35 35 0
179 -35 35 0
-180 -178 0
-180 -179 0
-181 177 0
-181 180 0
182 -36 36 0
183 -36 36 0
-184 -182 0
-184 -183 0
-185 181 0
-185 184 0
186 -37 37 0
187 -37 37 0
-188 -186 0
-188 -187 0
-189 185 0
-189 188 0
190 -38 38 0
191 -38 38 0
-192 -190 0
-192 -191 0
-193 189 0
-193 192 0
-194 1 0
-194 193 0
-195 -49 0
-195 194 0
195 0
